Route #1: 209 26 213 148 102 185 118 208 24 84 151
Route #2: 138 71 65 55 106 7 83 210 179 123 158 105 23 70 116 6 169
Route #3: 124 99 200 186 187 163 17 133 34 87 98 77 139 15 18 110 142 60 199 3 30 131 162 92 36 193 172
Route #4: 33 78 76 175 180 97 136 182 115 59 159 195 56 81 22 212 94 74 29 88 43 192 171 178 119 194 19 176 108 42 196 160 189 64
Route #5: 174 112 154 67 75 28 100 165 85 61 69 89 8 170 25 52 127 12 121 32 107 31 152
Route #6: 181 168 117 53 45 144 48 62 91 147 2 156 177 130 188 141 204 104 157 41 5 129 132 11 68 63 40 167 135
Route #7: 153 190 161 20 205 109 183 51 164 37 66 14 16 114 122 113 95 184 54 86 146 90 150 145 44 128 207 103 58 72 101 4
Route #8: 143 140 211 202 35 1 57 111 134 9 79 197 198 126 203 21 155
Route #9: 137 80 13 120 93 82 27 166 201 50 173 125 73 38 46 149 39 10 206 191 49 47 96
Cost 9430.000000